
Gurobi 9.5.1 (win64) logging started Thu Nov  9 18:11:02 2023

Set parameter LogFile to value "consol_info_6"

Gurobi 9.5.1 (win64) logging started Sat Nov 11 13:11:56 2023

Set parameter LogFile to value "consol_info_6"
